#######################
Slurm job id: 17497813_202
Running on machine: p29
Running cmd: /nfs/shared/static-builds/gurobi1202 SOFTMEMLIMIT=125 MIPFocus=2 Presolve=1 TimeLimit=500 seed=11 /nfs/models/miplib2010/k16x240.mps.bz2
#######################
Set parameter TimeLimit to value 500
Set parameter SoftMemLimit to value 125
Set parameter MIPFocus to value 2
Set parameter LogFile to value 1202-MIPFocus2-Presolve1-TimeLimit500-k16x240-1.log
Set parameter Presolve to value 1
Set parameter Seed to value 11
Using license file /opt/gurobi/gurobi.lic

Gurobi Optimizer version 12.0.2 build v12.0.2rc0 (linux64 - "Ubuntu 22.04.4 LTS")
Copyright (c) 2025, Gurobi Optimization, LLC

Read MPS format model from file /nfs/models/miplib2010/k16x240.mps.bz2
Reading time = 0.00 seconds
k16x240: 256 rows, 480 columns, 960 nonzeros

Using Gurobi shared library /nfs/shared/static-builds/gurobi1202

CPU model: Intel(R) Xeon(R) E-2388G CPU @ 3.20GHz, instruction set [SSE2|AVX|AVX2|AVX512]
Thread count: 8 physical cores, 16 logical processors, using up to 16 threads

Non-default parameters:
TimeLimit  500
SoftMemLimit  125
MIPFocus  2
Presolve  1
Seed  11

Optimize a model with 256 rows, 480 columns and 960 nonzeros
Model fingerprint: 0x4e80885f
Variable types: 240 continuous, 240 integer (240 binary)
Coefficient statistics:
  Matrix range     [1e+00, 1e+03]
  Objective range  [1e+00, 1e+03]
  Bounds range     [1e+00, 1e+03]
  RHS range        [4e+00, 4e+02]
Found heuristic solution: objective 24175.000000
Presolve time: 0.00s
Presolved: 256 rows, 480 columns, 960 nonzeros
Variable types: 240 continuous, 240 integer (240 binary)

Root relaxation: objective 2.769838e+03, 51 iterations, 0.00 seconds (0.00 work units)

    Nodes    |    Current Node    |     Objective Bounds      |     Work
 Expl Unexpl |  Obj  Depth IntInf | Incumbent    BestBd   Gap | It/Node Time

     0     0 2769.83800    0   14 24175.0000 2769.83800  88.5%     -    0s
H    0     0                    11359.000000 2769.83800  75.6%     -    0s
H    0     0                    11195.000000 2769.83800  75.3%     -    0s
H    0     0                    11088.000000 2769.83800  75.0%     -    0s
H    0     0                    11074.000000 2769.83800  75.0%     -    0s
     0     0 8116.87580    0   26 11074.0000 8116.87580  26.7%     -    0s
H    0     0                    10916.000000 8161.01413  25.2%     -    0s
H    0     0                    10896.000000 8588.30479  21.2%     -    0s
     0     0 8588.30479    0   25 10896.0000 8588.30479  21.2%     -    0s
H    0     0                    10806.000000 8613.92228  20.3%     -    0s
     0     0 8613.92228    0   22 10806.0000 8613.92228  20.3%     -    0s
     0     0 8711.68859    0   22 10806.0000 8711.68859  19.4%     -    0s
H    0     0                    10794.000000 8715.19064  19.3%     -    0s
H    0     0                    10750.000000 8715.19064  18.9%     -    0s
     0     0 8841.44337    0   27 10750.0000 8841.44337  17.8%     -    0s
     0     0 8854.70970    0   41 10750.0000 8854.70970  17.6%     -    0s
     0     0 8856.63912    0   42 10750.0000 8856.63912  17.6%     -    0s
     0     0 9004.10219    0   41 10750.0000 9004.10219  16.2%     -    0s
     0     0 9070.40262    0   35 10750.0000 9070.40262  15.6%     -    0s
     0     0 9076.79431    0   36 10750.0000 9076.79431  15.6%     -    0s
     0     0 9094.13253    0   29 10750.0000 9094.13253  15.4%     -    0s
     0     0 9096.80913    0   29 10750.0000 9096.80913  15.4%     -    0s
     0     0 9115.11833    0   30 10750.0000 9115.11833  15.2%     -    0s
     0     0 9115.54046    0   30 10750.0000 9115.54046  15.2%     -    0s
     0     2 9115.54046    0   30 10750.0000 9115.54046  15.2%     -    0s
H  133   157                    10678.000000 9212.74304  13.7%  42.4    0s
H  961   787                    10674.000000 9373.55232  12.2%  21.2    0s
 36398 13323 10268.2556   26   27 10674.0000 10023.6135  6.09%  23.3    5s
 86443 19085     cutoff   33      10674.0000 10230.2829  4.16%  24.1   10s
 136833 10077 10613.1598   33    9 10674.0000 10434.8857  2.24%  23.6   15s

Cutting planes:
  Gomory: 1
  Lift-and-project: 14
  Cover: 81
  Implied bound: 39
  Dual implied bound: 16
  MIR: 181
  Flow cover: 275
  Flow path: 36
  Inf proof: 4
  Zero half: 8
  Network: 43
  Relax-and-lift: 4

Explored 154801 nodes (3505549 simplex iterations) in 16.32 seconds (21.61 work units)
Thread count was 16 (of 16 available processors)

Solution count 10: 10674 10678 10750 ... 11195

Optimal solution found (tolerance 1.00e-04)
Best objective 1.067400000000e+04, best bound 1.067400000000e+04, gap 0.0000%
